GLPSOL--GLPK LP/MIP Solver 5.0
Parameter(s) specified in the command line:
 --lp ../modeles/2_229.lp --log 2_229.log
Reading problem data from '../modeles/2_229.lp'...
467 rows, 920 columns, 3216 non-zeros
458 integer variables, all of which are binary
1395 lines were read
GLPK Integer Optimizer 5.0
467 rows, 920 columns, 3216 non-zeros
458 integer variables, all of which are binary
Preprocessing...
452 constraint coefficient(s) were reduced
467 rows, 918 columns, 3214 non-zeros
458 integer variables, all of which are binary
Scaling...
 A: min|aij| =  7.628e-05  max|aij| =  4.000e+00  ratio =  5.244e+04
GM: min|aij| =  6.608e-02  max|aij| =  1.513e+01  ratio =  2.290e+02
EQ: min|aij| =  4.367e-03  max|aij| =  1.000e+00  ratio =  2.290e+02
2N: min|aij| =  3.906e-03  max|aij| =  1.752e+00  ratio =  4.486e+02
Constructing initial basis...
Size of triangular part is 467
Solving LP relaxation...
GLPK Simplex Optimizer 5.0
467 rows, 918 columns, 3214 non-zeros
      0: obj =   4.000000000e+00 inf =   9.500e+00 (5)
     29: obj =   4.999332571e-01 inf =   0.000e+00 (0)
*   120: obj =  -1.414205786e+00 inf =   8.500e-17 (0)
OPTIMAL LP SOLUTION FOUND
Integer optimization begins...
Long-step dual simplex will be used
+   120: mip =     not found yet >=              -inf        (1; 0)
+   158: >>>>>  -1.414205786e+00 >=  -1.414205786e+00   0.0% (39; 0)
+   158: mip =  -1.414205786e+00 >=     tree is empty   0.0% (0; 77)
INTEGER OPTIMAL SOLUTION FOUND
Time used:   0.0 secs
Memory used: 1.4 Mb (1444924 bytes)
